p tw 221 425
1 21
1 88
1 89
1 138
1 166
1 167
1 200
1 201
2 68
2 69
2 178
2 179
2 210
2 211
3 66
3 67
3 177
3 178
4 78
4 79
4 153
4 154
5 84
5 85
5 132
5 133
5 219
5 220
6 121
6 122
6 194
6 195
7 81
7 82
7 157
7 158
8 120
8 121
8 212
9 90
9 91
9 139
9 140
9 169
9 170
10 85
10 86
10 221
11 93
11 94
11 144
11 145
12 115
12 116
12 188
13 96
13 97
13 150
13 151
14 105
14 106
14 214
14 215
15 124
15 125
15 218
15 219
16 73
16 74
16 143
16 144
16 189
16 190
17 92
17 93
17 145
17 146
18 65
18 66
18 159
18 160
18 176
18 177
19 113
19 127
19 185
20 110
20 111
20 134
20 135
20 181
20 182
21 26
21 138
21 168
21 201
21 202
22 107
22 108
22 130
22 131
22 179
22 180
23 102
23 103
23 160
23 161
23 175
23 176
24 122
24 123
24 161
24 162
24 205
24 206
25 56
25 217
25 218
26 41
26 168
26 202
27 99
27 100
27 152
27 153
27 203
27 204
28 112
28 113
28 184
28 185
29 98
29 99
29 203
30 72
30 73
30 141
30 142
31 71
31 164
31 165
31 182
31 183
32 94
32 95
32 147
32 148
32 172
32 173
33 131
33 132
33 187
33 188
34 74
34 75
34 142
34 143
35 61
35 62
35 140
35 141
35 170
35 171
36 87
36 88
36 165
36 166
36 198
36 199
37 83
37 84
37 162
37 163
37 195
37 196
38 63
38 64
38 148
38 149
38 173
38 174
39 64
39 65
39 154
39 155
40 108
40 109
40 163
40 164
40 180
40 181
41 42
41 126
41 202
42 126
42 167
42 168
42 199
42 200
43 80
43 81
43 204
43 205
44 103
44 104
44 158
44 159
45 90
45 128
45 129
46 77
46 78
46 151
46 152
47 116
47 220
47 221
48 123
48 124
48 212
48 213
49 114
49 115
49 208
49 209
50 82
50 83
50 215
50 216
51 100
51 101
51 155
51 156
51 174
51 175
52 86
52 87
52 197
52 198
53 117
53 118
53 149
53 150
53 191
53 192
54 76
54 77
54 146
54 147
54 190
54 191
55 127
55 128
55 206
55 207
56 186
56 187
57 60
57 61
57 129
57 169
58 119
58 120
58 156
58 157
58 192
58 193
59 70
59 71
59 136
59 137
60 61
60 139
61 62
62 63
63 64
64 65
65 66
66 67
67 68
68 69
69 70
70 71
72 73
72 189
73 74
74 75
75 76
76 77
77 78
78 79
79 80
80 81
81 82
82 83
83 84
84 85
85 86
86 87
87 88
88 89
89 211
90 91
91 92
92 93
93 94
94 95
95 96
96 97
97 98
98 99
99 100
100 101
101 102
102 103
103 104
104 105
105 106
106 107
107 108
108 109
109 110
110 111
111 112
112 113
114 115
114 186
115 116
117 118
117 130
118 119
119 120
120 121
121 122
122 123
123 124
124 125
125 126
127 128
128 129
130 131
131 132
132 133
133 134
134 135
135 136
136 137
137 138
139 140
140 141
141 142
142 143
143 144
144 145
145 146
146 147
147 148
148 149
149 150
150 151
151 152
152 153
153 154
154 155
155 156
156 157
157 158
158 159
159 160
160 161
161 162
162 163
163 164
164 165
165 166
166 167
167 168
169 170
170 171
171 172
172 173
173 174
174 175
175 176
176 177
177 178
178 179
179 180
180 181
181 182
182 183
183 184
184 185
186 187
187 188
189 190
190 191
191 192
192 193
193 194
194 195
195 196
196 197
197 198
198 199
199 200
200 201
201 202
203 204
204 205
205 206
206 207
207 208
208 209
209 210
210 211
212 213
213 214
214 215
215 216
216 217
217 218
218 219
219 220
220 221
